
Gurobi 10.0.1 (win64) logging started Thu Oct  5 12:31:46 2023

Set parameter LogFile to value "./results//log/BA_08_deadline_heurFalse.log"
Gurobi Optimizer version 10.0.1 build v10.0.1rc0 (win64)

CPU model: AMD Ryzen 7 3700X 8-Core Processor, instruction set [SSE2|AVX|AVX2]
Thread count: 8 physical cores, 16 logical processors, using up to 16 threads

Optimize a model with 183 rows, 124 columns and 658 nonzeros
Model fingerprint: 0xcfaa6e9e
Model has 1 quadratic constraint
Variable types: 0 continuous, 124 integer (105 binary)
Coefficient statistics:
  Matrix range     [1e+00, 1e+07]
  QMatrix range    [1e+00, 1e+00]
  QLMatrix range   [1e+00, 7e+00]
  Objective range  [1e+00, 1e+00]
  Bounds range     [1e+00, 1e+00]
  RHS range        [1e+00, 3e+07]
Presolve removed 43 rows and 51 columns
Presolve time: 0.00s
Presolved: 147 rows, 79 columns, 625 nonzeros
Variable types: 0 continuous, 79 integer (54 binary)

Root relaxation: objective 0.000000e+00, 21 iterations, 0.00 seconds (0.00 work units)

    Nodes    |    Current Node    |     Objective Bounds      |     Work
 Expl Unexpl |  Obj  Depth IntInf | Incumbent    BestBd   Gap | It/Node Time

     0     0    0.00000    0   11          -    0.00000      -     -    0s
H    0     0                      39.0000000    0.00000   100%     -    0s
H    0     0                      29.0000000    0.00000   100%     -    0s
H    0     0                      28.0000000    0.00000   100%     -    0s
     0     0    0.00000    0   11   28.00000    0.00000   100%     -    0s
     0     0    0.00000    0   18   28.00000    0.00000   100%     -    0s
     0     0    3.01653    0    6   28.00000    3.01653  89.2%     -    0s
     0     0    4.00000    0    7   28.00000    4.00000  85.7%     -    0s
     0     0    5.20000    0    9   28.00000    5.20000  81.4%     -    0s
     0     0    5.20000    0   10   28.00000    5.20000  81.4%     -    0s
     0     0    6.12353    0   16   28.00000    6.12353  78.1%     -    0s
     0     0    6.23830    0   12   28.00000    6.23830  77.7%     -    0s
     0     0    6.34872    0   13   28.00000    6.34872  77.3%     -    0s
     0     0    6.34872    0   23   28.00000    6.34872  77.3%     -    0s
     0     0    6.74725    0   18   28.00000    6.74725  75.9%     -    0s
     0     0    6.74725    0   17   28.00000    6.74725  75.9%     -    0s
     0     0    6.88696    0   14   28.00000    6.88696  75.4%     -    0s
     0     0    6.88696    0   16   28.00000    6.88696  75.4%     -    0s
     0     0    6.89887    0   21   28.00000    6.89887  75.4%     -    0s
H    0     0                      26.0000000    6.89887  73.5%     -    0s
H    0     0                      25.0000000    6.89887  72.4%     -    0s
     0     0    6.91951    0   22   25.00000    6.91951  72.3%     -    0s
     0     0    6.91951    0   20   25.00000    6.91951  72.3%     -    0s
     0     0    6.91951    0   12   25.00000    6.91951  72.3%     -    0s
     0     1    6.91951    0   12   25.00000    6.91951  72.3%     -    0s

Cutting planes:
  Learned: 11
  Gomory: 15
  Cover: 4
  Implied bound: 2
  MIR: 8
  StrongCG: 2
  Flow cover: 15
  Zero half: 6

Explored 22762 nodes (1864 simplex iterations) in 0.36 seconds (0.15 work units)
Thread count was 16 (of 16 available processors)

Solution count 5: 25 26 28 ... 39

Optimal solution found (tolerance 1.00e-04)
Best objective 2.500000000000e+01, best bound 2.500000000000e+01, gap 0.0000%
Warning: constraint name "precedence between 0,0 to 0,1 if x_[0,0,0,1,1]=0, i.e. 0,1 before 0,0" has a space
Warning: constraint name "precedence between 0,0 to 0,1 if x_[0,0,0,1,1]=0, i.e. 0,1 before 0,0" has a space
Warning: default constraint names used to write mps file
